(set-logic ALL)
(set-option :produce-models true)
(declare-sort BoundSet 0)
(declare-sort UnboundSet 0)
(set-option :finite-model-find true)
(declare-fun HaveData (BoundSet BoundSet) Bool)
(declare-fun IsTooLittle (BoundSet) Bool)
(declare-fun IsUnrepresentative (BoundSet) Bool)
(declare-fun MakeClaim (BoundSet BoundSet) Bool)
(assert (not (=> (exists ((a BoundSet)) (exists ((b BoundSet)) (and (HaveData a b) (or (IsTooLittle b) (IsUnrepresentative b))))) (exists ((a BoundSet)) (exists ((c BoundSet)) (not (MakeClaim a c)))))))
(check-sat)
(get-model)